50
500
342
338
337
335
334
332
327
319
319
301
298
297
286
283
282
279
278
276
275
271
266
255
241
240
233
229
208
203
201
199
194
185
178
176
174
171
168
163
159
159
152
149
145
130
128
122
117
116
115
114
